N = 6;
H = 6;
T = 2;

avail = array3d(1..N, 1..H, 1..T, [0, 3, 7, 3, 9, 9, 10, 2, 10, 9, 1, 6, 3, 3, 10, 8, 7, 0, 4, 1, 5, 10, 3, 3, 5, 4, 1, 4, 1, 5, 4, 1, 1, 1, 0, 3, 3, 6, 1, 3, 0, 8, 10, 4, 7, 0, 2, 4, 5, 6, 1, 9, 0, 4, 8, 2, 2, 0, 10, 2, 8, 2, 0, 0, 0, 5, 0, 2, 3, 8, 5, 7]);

r = array2d(1..H, 1..T, [2, 2, 0, 0, 1, 2, 2, 1, 2, 0, 2, 3]);
